40
    73    32    44    87    67    63    13    10    94    11    50    90    93    79    96    39    33    20    72    77    11    40    75    24    52   100    83     4     7    12    49    45    59    42     6    75    16    10    65    29
     8     8    10     1     2     9     3     6     1    10     7    10     2     3    10     9     2     3     4     8     6     4     3     4     6     4     7     5     4     7     7    10    10     5     9     8     3     3     1     1
  1034  1260  1317  1095  1026  1187  1138  1281  1063  1006   982  1169  1051  1310  1189  1125  1097  1212  1091  1063  1084  1336  1016  1025  1219  1186   990  1167  1216   977  1184  1155  1235  1335  1008  1329  1064  1242  1108  1328
